2678.56
0 1 2 3 4 5 6 7 8 9 46 91 0
0 10 11 12 13 14 15 18 55 0
0 19 20 21 22 23 24 25 75 0
0 26 27 28 29 30 31 36 0
0 32 33 34 35 37 38 39 0
0 40 41 42 43 44 45 47 50 51 92 0
0 48 49 52 53 54 60 17 0
0 56 57 58 59 61 62 63 64 0
0 65 66 67 68 69 0
0 70 71 72 73 74 76 77 78 0
0 79 80 81 82 83 84 88 90 96 0
0 85 86 87 98 0
0 89 93 94 95 97 99 0
0 100 16 0
